c description: Tseitin formula on Random 4-regular graph of 47 vertices, with odd charge
c generator: CNFgen (0.9.2)
c copyright: (C) 2012-2022 Massimo Lauria <massimo.lauria@uniroma1.it>
c url: https://massimolauria.net/cnfgen
c command line: cnfgen tseitin 47
c
p cnf 94 376
1 2 3 -4 0
1 2 -3 4 0
1 -2 3 4 0
1 -2 -3 -4 0
-1 2 3 4 0
-1 2 -3 -4 0
-1 -2 3 -4 0
-1 -2 -3 4 0
5 6 7 -8 0
5 6 -7 8 0
5 -6 7 8 0
5 -6 -7 -8 0
-5 6 7 8 0
-5 6 -7 -8 0
-5 -6 7 -8 0
-5 -6 -7 8 0
9 10 11 12 0
9 10 -11 -12 0
9 -10 11 -12 0
9 -10 -11 12 0
-9 10 11 -12 0
-9 10 -11 12 0
-9 -10 11 12 0
-9 -10 -11 -12 0
13 14 15 16 0
13 14 -15 -16 0
13 -14 15 -16 0
13 -14 -15 16 0
-13 14 15 -16 0
-13 14 -15 16 0
-13 -14 15 16 0
-13 -14 -15 -16 0
17 18 19 20 0
17 18 -19 -20 0
17 -18 19 -20 0
17 -18 -19 20 0
-17 18 19 -20 0
-17 18 -19 20 0
-17 -18 19 20 0
-17 -18 -19 -20 0
21 22 23 -24 0
21 22 -23 24 0
21 -22 23 24 0
21 -22 -23 -24 0
-21 22 23 24 0
-21 22 -23 -24 0
-21 -22 23 -24 0
-21 -22 -23 24 0
21 25 26 27 0
21 25 -26 -27 0
21 -25 26 -27 0
21 -25 -26 27 0
-21 25 26 -27 0
-21 25 -26 27 0
-21 -25 26 27 0
-21 -25 -26 -27 0
1 28 29 -30 0
1 28 -29 30 0
1 -28 29 30 0
1 -28 -29 -30 0
-1 28 29 30 0
-1 28 -29 -30 0
-1 -28 29 -30 0
-1 -28 -29 30 0
22 31 32 -33 0
22 31 -32 33 0
22 -31 32 33 0
22 -31 -32 -33 0
-22 31 32 33 0
-22 31 -32 -33 0
-22 -31 32 -33 0
-22 -31 -32 33 0
5 9 25 34 0
5 9 -25 -34 0
5 -9 25 -34 0
5 -9 -25 34 0
-5 9 25 -34 0
-5 9 -25 34 0
-5 -9 25 34 0
-5 -9 -25 -34 0
35 36 37 -38 0
35 36 -37 38 0
35 -36 37 38 0
35 -36 -37 -38 0
-35 36 37 38 0
-35 36 -37 -38 0
-35 -36 37 -38 0
-35 -36 -37 38 0
13 39 40 41 0
13 39 -40 -41 0
13 -39 40 -41 0
13 -39 -40 41 0
-13 39 40 -41 0
-13 39 -40 41 0
-13 -39 40 41 0
-13 -39 -40 -41 0
42 43 44 -45 0
42 43 -44 45 0
42 -43 44 45 0
42 -43 -44 -45 0
-42 43 44 45 0
-42 43 -44 -45 0
-42 -43 44 -45 0
-42 -43 -44 45 0
39 46 47 48 0
39 46 -47 -48 0
39 -46 47 -48 0
39 -46 -47 48 0
-39 46 47 -48 0
-39 46 -47 48 0
-39 -46 47 48 0
-39 -46 -47 -48 0
42 49 50 -51 0
42 49 -50 51 0
42 -49 50 51 0
42 -49 -50 -51 0
-42 49 50 51 0
-42 49 -50 -51 0
-42 -49 50 -51 0
-42 -49 -50 51 0
28 49 52 53 0
28 49 -52 -53 0
28 -49 52 -53 0
28 -49 -52 53 0
-28 49 52 -53 0
-28 49 -52 53 0
-28 -49 52 53 0
-28 -49 -52 -53 0
31 54 55 56 0
31 54 -55 -56 0
31 -54 55 -56 0
31 -54 -55 56 0
-31 54 55 -56 0
-31 54 -55 56 0
-31 -54 55 56 0
-31 -54 -55 -56 0
14 46 57 -58 0
14 46 -57 58 0
14 -46 57 58 0
14 -46 -57 -58 0
-14 46 57 58 0
-14 46 -57 -58 0
-14 -46 57 -58 0
-14 -46 -57 58 0
10 26 43 59 0
10 26 -43 -59 0
10 -26 43 -59 0
10 -26 -43 59 0
-10 26 43 -59 0
-10 26 -43 59 0
-10 -26 43 59 0
-10 -26 -43 -59 0
35 50 60 61 0
35 50 -60 -61 0
35 -50 60 -61 0
35 -50 -60 61 0
-35 50 60 -61 0
-35 50 -60 61 0
-35 -50 60 61 0
-35 -50 -60 -61 0
11 15 62 63 0
11 15 -62 -63 0
11 -15 62 -63 0
11 -15 -62 63 0
-11 15 62 -63 0
-11 15 -62 63 0
-11 -15 62 63 0
-11 -15 -62 -63 0
2 54 57 64 0
2 54 -57 -64 0
2 -54 57 -64 0
2 -54 -57 64 0
-2 54 57 -64 0
-2 54 -57 64 0
-2 -54 57 64 0
-2 -54 -57 -64 0
47 60 65 66 0
47 60 -65 -66 0
47 -60 65 -66 0
47 -60 -65 66 0
-47 60 65 -66 0
-47 60 -65 66 0
-47 -60 65 66 0
-47 -60 -65 -66 0
34 67 68 -69 0
34 67 -68 69 0
34 -67 68 69 0
34 -67 -68 -69 0
-34 67 68 69 0
-34 67 -68 -69 0
-34 -67 68 -69 0
-34 -67 -68 69 0
55 70 71 72 0
55 70 -71 -72 0
55 -70 71 -72 0
55 -70 -71 72 0
-55 70 71 -72 0
-55 70 -71 72 0
-55 -70 71 72 0
-55 -70 -71 -72 0
3 40 73 -74 0
3 40 -73 74 0
3 -40 73 74 0
3 -40 -73 -74 0
-3 40 73 74 0
-3 40 -73 -74 0
-3 -40 73 -74 0
-3 -40 -73 74 0
4 41 73 75 0
4 41 -73 -75 0
4 -41 73 -75 0
4 -41 -73 75 0
-4 41 73 -75 0
-4 41 -73 75 0
-4 -41 73 75 0
-4 -41 -73 -75 0
36 76 77 78 0
36 76 -77 -78 0
36 -76 77 -78 0
36 -76 -77 78 0
-36 76 77 -78 0
-36 76 -77 78 0
-36 -76 77 78 0
-36 -76 -77 -78 0
23 56 76 79 0
23 56 -76 -79 0
23 -56 76 -79 0
23 -56 -76 79 0
-23 56 76 -79 0
-23 56 -76 79 0
-23 -56 76 79 0
-23 -56 -76 -79 0
16 70 80 81 0
16 70 -80 -81 0
16 -70 80 -81 0
16 -70 -80 81 0
-16 70 80 -81 0
-16 70 -80 81 0
-16 -70 80 81 0
-16 -70 -80 -81 0
24 71 82 -83 0
24 71 -82 83 0
24 -71 82 83 0
24 -71 -82 -83 0
-24 71 82 83 0
-24 71 -82 -83 0
-24 -71 82 -83 0
-24 -71 -82 83 0
37 59 64 84 0
37 59 -64 -84 0
37 -59 64 -84 0
37 -59 -64 84 0
-37 59 64 -84 0
-37 59 -64 84 0
-37 -59 64 84 0
-37 -59 -64 -84 0
44 74 75 85 0
44 74 -75 -85 0
44 -74 75 -85 0
44 -74 -75 85 0
-44 74 75 -85 0
-44 74 -75 85 0
-44 -74 75 85 0
-44 -74 -75 -85 0
48 80 86 87 0
48 80 -86 -87 0
48 -80 86 -87 0
48 -80 -86 87 0
-48 80 86 -87 0
-48 80 -86 87 0
-48 -80 86 87 0
-48 -80 -86 -87 0
6 67 72 -88 0
6 67 -72 88 0
6 -67 72 88 0
6 -67 -72 -88 0
-6 67 72 88 0
-6 67 -72 -88 0
-6 -67 72 -88 0
-6 -67 -72 88 0
62 89 90 91 0
62 89 -90 -91 0
62 -89 90 -91 0
62 -89 -90 91 0
-62 89 90 -91 0
-62 89 -90 91 0
-62 -89 90 91 0
-62 -89 -90 -91 0
17 82 84 92 0
17 82 -84 -92 0
17 -82 84 -92 0
17 -82 -84 92 0
-17 82 84 -92 0
-17 82 -84 92 0
-17 -82 84 92 0
-17 -82 -84 -92 0
29 32 77 92 0
29 32 -77 -92 0
29 -32 77 -92 0
29 -32 -77 92 0
-29 32 77 -92 0
-29 32 -77 92 0
-29 -32 77 92 0
-29 -32 -77 -92 0
52 85 86 -93 0
52 85 -86 93 0
52 -85 86 93 0
52 -85 -86 -93 0
-52 85 86 93 0
-52 85 -86 -93 0
-52 -85 86 -93 0
-52 -85 -86 93 0
18 65 83 -88 0
18 65 -83 88 0
18 -65 83 88 0
18 -65 -83 -88 0
-18 65 83 88 0
-18 65 -83 -88 0
-18 -65 83 -88 0
-18 -65 -83 88 0
7 19 30 -78 0
7 19 -30 78 0
7 -19 30 78 0
7 -19 -30 -78 0
-7 19 30 78 0
-7 19 -30 -78 0
-7 -19 30 -78 0
-7 -19 -30 78 0
12 20 53 66 0
12 20 -53 -66 0
12 -20 53 -66 0
12 -20 -53 66 0
-12 20 53 -66 0
-12 20 -53 66 0
-12 -20 53 66 0
-12 -20 -53 -66 0
51 63 79 -81 0
51 63 -79 81 0
51 -63 79 81 0
51 -63 -79 -81 0
-51 63 79 81 0
-51 63 -79 -81 0
-51 -63 79 -81 0
-51 -63 -79 81 0
8 68 89 -93 0
8 68 -89 93 0
8 -68 89 93 0
8 -68 -89 -93 0
-8 68 89 93 0
-8 68 -89 -93 0
-8 -68 89 -93 0
-8 -68 -89 93 0
33 69 90 -94 0
33 69 -90 94 0
33 -69 90 94 0
33 -69 -90 -94 0
-33 69 90 94 0
-33 69 -90 -94 0
-33 -69 90 -94 0
-33 -69 -90 94 0
38 58 87 -91 0
38 58 -87 91 0
38 -58 87 91 0
38 -58 -87 -91 0
-38 58 87 91 0
-38 58 -87 -91 0
-38 -58 87 -91 0
-38 -58 -87 91 0
27 45 61 94 0
27 45 -61 -94 0
27 -45 61 -94 0
27 -45 -61 94 0
-27 45 61 -94 0
-27 45 -61 94 0
-27 -45 61 94 0
-27 -45 -61 -94 0
